44
1 0 19
2 0 45
2 1 27
3 0 66
3 1 17
3 2 48
4 0 41
4 1 27
4 2 36
4 3 63
5 0 42
5 1 4
5 2 60
5 3 30
5 4 2
6 0 66
6 1 21
6 2 31
6 3 50
6 4 52
6 5 64
7 0 59
7 1 10
7 2 67
7 3 63
7 4 23
7 5 44
7 6 29
8 0 35
8 1 58
8 2 20
8 3 56
8 4 57
8 5 19
8 6 36
8 7 69
9 0 21
9 1 30
9 2 34
9 3 3
9 4 35
9 5 68
9 6 51
9 7 21
9 8 36
10 0 14
10 1 65
10 2 8
10 3 2
10 4 10
10 5 30
10 6 50
10 7 69
10 8 45
10 9 15
11 0 45
11 1 18
11 2 70
11 3 11
11 4 47
11 5 64
11 6 7
11 7 67
11 8 59
11 9 57
11 10 14
12 0 1
12 1 41
12 2 56
12 3 43
12 4 8
12 5 36
12 6 40
12 7 15
12 8 57
12 9 45
12 10 5
12 11 23
13 0 48
13 1 14
13 2 3
13 3 29
13 4 66
13 5 64
13 6 62
13 7 59
13 8 12
13 9 66
13 10 15
13 11 21
13 12 5
14 0 24
14 1 39
14 2 2
14 3 27
14 4 9
14 5 16
14 6 40
14 7 42
14 8 7
14 9 15
14 10 65
14 11 68
14 12 68
14 13 43
15 0 27
15 1 69
15 2 55
15 3 8
15 4 4
15 5 21
15 6 8
15 7 23
15 8 25
15 9 55
15 10 5
15 11 9
15 12 47
15 13 13
15 14 56
16 0 21
16 1 59
16 2 42
16 3 5
16 4 67
16 5 44
16 6 55
16 7 14
16 8 60
16 9 60
16 10 50
16 11 16
16 12 26
16 13 11
16 14 30
16 15 25
17 0 44
17 1 26
17 2 45
17 3 63
17 4 24
17 5 9
17 6 50
17 7 15
17 8 19
17 9 14
17 10 22
17 11 34
17 12 12
17 13 25
17 14 23
17 15 19
17 16 54
18 0 18
18 1 22
18 2 17
18 3 24
18 4 20
18 5 20
18 6 25
18 7 36
18 8 33
18 9 46
18 10 42
18 11 45
18 12 58
18 13 59
18 14 69
18 15 64
18 16 66
18 17 38
19 0 20
19 1 57
19 2 35
19 3 59
19 4 64
19 5 61
19 6 64
19 7 55
19 8 55
19 9 36
19 10 50
19 11 55
19 12 11
19 13 52
19 14 60
19 15 16
19 16 49
19 17 57
19 18 31
20 0 11
20 1 21
20 2 8
20 3 27
20 4 48
20 5 34
20 6 1
20 7 67
20 8 49
20 9 19
20 10 12
20 11 29
20 12 69
20 13 1
20 14 1
20 15 67
20 16 57
20 17 24
20 18 57
20 19 67
21 0 38
21 1 36
21 2 68
21 3 57
21 4 64
21 5 44
21 6 24
21 7 23
21 8 68
21 9 27
21 10 38
21 11 12
21 12 66
21 13 55
21 14 66
21 15 62
21 16 18
21 17 26
21 18 23
21 19 43
21 20 57
22 0 24
22 1 53
22 2 14
22 3 1
22 4 39
22 5 2
22 6 57
22 7 7
22 8 4
22 9 50
22 10 57
22 11 13
22 12 58
22 13 51
22 14 47
22 15 34
22 16 64
22 17 61
22 18 22
22 19 68
22 20 2
22 21 60
23 0 62
23 1 39
23 2 21
23 3 49
23 4 10
23 5 10
23 6 51
23 7 30
23 8 43
23 9 31
23 10 49
23 11 51
23 12 44
23 13 32
23 14 38
23 15 52
23 16 36
23 17 46
23 18 44
23 19 12
23 20 52
23 21 47
23 22 8
24 0 36
24 1 59
24 2 56
24 3 67
24 4 68
24 5 10
24 6 41
24 7 53
24 8 33
24 9 1
24 10 39
24 11 47
24 12 50
24 13 62
24 14 39
24 15 38
24 16 18
24 17 15
24 18 34
24 19 62
24 20 4
24 21 30
24 22 15
24 23 18
25 0 67
25 1 23
25 2 9
25 3 23
25 4 2
25 5 27
25 6 38
25 7 47
25 8 57
25 9 8
25 10 61
25 11 6
25 12 53
25 13 31
25 14 17
25 15 51
25 16 39
25 17 42
25 18 13
25 19 55
25 20 7
25 21 5
25 22 27
25 23 6
25 24 6
26 0 47
26 1 40
26 2 10
26 3 57
26 4 37
26 5 22
26 6 31
26 7 40
26 8 1
26 9 64
26 10 55
26 11 33
26 12 31
26 13 3
26 14 26
26 15 66
26 16 13
26 17 37
26 18 42
26 19 69
26 20 56
26 21 44
26 22 64
26 23 70
26 24 69
26 25 41
27 0 14
27 1 63
27 2 41
27 3 17
27 4 35
27 5 43
27 6 69
27 7 21
27 8 3
27 9 17
27 10 44
27 11 10
27 12 62
27 13 48
27 14 31
27 15 32
27 16 47
27 17 13
27 18 23
27 19 17
27 20 22
27 21 21
27 22 20
27 23 46
27 24 36
27 25 16
27 26 32
28 0 59
28 1 40
28 2 33
28 3 34
28 4 68
28 5 57
28 6 18
28 7 54
28 8 53
28 9 33
28 10 10
28 11 37
28 12 24
28 13 12
28 14 70
28 15 62
28 16 37
28 17 5
28 18 58
28 19 18
28 20 18
28 21 21
28 22 37
28 23 58
28 24 20
28 25 31
28 26 28
28 27 57
29 0 18
29 1 12
29 2 70
29 3 64
29 4 37
29 5 6
29 6 43
29 7 1
29 8 52
29 9 36
29 10 36
29 11 17
29 12 41
29 13 63
29 14 55
29 15 48
29 16 43
29 17 55
29 18 18
29 19 38
29 20 68
29 21 61
29 22 6
29 23 38
29 24 10
29 25 20
29 26 47
29 27 51
29 28 31
30 0 18
30 1 12
30 2 5
30 3 47
30 4 62
30 5 64
30 6 41
30 7 3
30 8 33
30 9 16
30 10 53
30 11 45
30 12 61
30 13 33
30 14 29
30 15 47
30 16 37
30 17 35
30 18 38
30 19 29
30 20 32
30 21 63
30 22 46
30 23 51
30 24 11
30 25 17
30 26 37
30 27 24
30 28 19
30 29 54
31 0 35
31 1 25
31 2 30
31 3 68
31 4 58
31 5 51
31 6 43
31 7 62
31 8 37
31 9 44
31 10 10
31 11 27
31 12 58
31 13 67
31 14 51
31 15 30
31 16 15
31 17 26
31 18 46
31 19 28
31 20 36
31 21 43
31 22 49
31 23 42
31 24 46
31 25 4
31 26 36
31 27 66
31 28 9
31 29 51
31 30 36
32 0 9
32 1 68
32 2 10
32 3 35
32 4 62
32 5 3
32 6 61
32 7 46
32 8 15
32 9 70
32 10 37
32 11 34
32 12 41
32 13 65
32 14 44
32 15 65
32 16 32
32 17 54
32 18 42
32 19 49
32 20 53
32 21 70
32 22 55
32 23 50
32 24 8
32 25 5
32 26 19
32 27 58
32 28 60
32 29 49
32 30 60
32 31 40
33 0 23
33 1 65
33 2 38
33 3 34
33 4 51
33 5 35
33 6 24
33 7 17
33 8 57
33 9 14
33 10 14
33 11 40
33 12 67
33 13 68
33 14 30
33 15 62
33 16 32
33 17 69
33 18 70
33 19 66
33 20 20
33 21 4
33 22 27
33 23 65
33 24 20
33 25 11
33 26 68
33 27 70
33 28 57
33 29 48
33 30 16
33 31 65
33 32 26
34 0 59
34 1 9
34 2 41
34 3 24
34 4 32
34 5 23
34 6 13
34 7 22
34 8 61
34 9 29
34 10 56
34 11 25
34 12 56
34 13 9
34 14 25
34 15 26
34 16 17
34 17 6
34 18 11
34 19 15
34 20 5
34 21 60
34 22 53
34 23 21
34 24 40
34 25 11
34 26 40
34 27 2
34 28 14
34 29 30
34 30 51
34 31 65
34 32 31
34 33 28
35 0 55
35 1 48
35 2 21
35 3 8
35 4 44
35 5 16
35 6 69
35 7 32
35 8 37
35 9 41
35 10 54
35 11 43
35 12 69
35 13 21
35 14 6
35 15 28
35 16 16
35 17 35
35 18 25
35 19 61
35 20 13
35 21 58
35 22 69
35 23 29
35 24 29
35 25 10
35 26 54
35 27 15
35 28 22
35 29 26
35 30 32
35 31 1
35 32 38
35 33 67
35 34 15
36 0 17
36 1 42
36 2 10
36 3 25
36 4 19
36 5 53
36 6 33
36 7 32
36 8 5
36 9 2
36 10 50
36 11 58
36 12 49
36 13 60
36 14 64
36 15 61
36 16 27
36 17 33
36 18 11
36 19 57
36 20 5
36 21 22
36 22 35
36 23 66
36 24 52
36 25 69
36 26 70
36 27 15
36 28 58
36 29 33
36 30 59
36 31 58
36 32 47
36 33 51
36 34 58
36 35 26
37 0 40
37 1 54
37 2 8
37 3 22
37 4 12
37 5 68
37 6 39
37 7 16
37 8 5
37 9 14
37 10 21
37 11 59
37 12 63
37 13 54
37 14 23
37 15 57
37 16 23
37 17 49
37 18 14
37 19 69
37 20 48
37 21 42
37 22 15
37 23 22
37 24 14
37 25 65
37 26 40
37 27 62
37 28 65
37 29 60
37 30 31
37 31 40
37 32 6
37 33 56
37 34 66
37 35 21
37 36 11
38 0 16
38 1 30
38 2 10
38 3 8
38 4 36
38 5 42
38 6 30
38 7 35
38 8 56
38 9 26
38 10 51
38 11 30
38 12 21
38 13 23
38 14 32
38 15 30
38 16 20
38 17 43
38 18 20
38 19 2
38 20 52
38 21 10
38 22 62
38 23 19
38 24 55
38 25 44
38 26 25
38 27 44
38 28 50
38 29 67
38 30 38
38 31 4
38 32 53
38 33 52
38 34 13
38 35 5
38 36 57
38 37 11
39 0 27
39 1 10
39 2 38
39 3 26
39 4 2
39 5 56
39 6 52
39 7 5
39 8 67
39 9 13
39 10 70
39 11 13
39 12 17
39 13 66
39 14 57
39 15 34
39 16 52
39 17 59
39 18 54
39 19 51
39 20 44
39 21 21
39 22 40
39 23 60
39 24 70
39 25 57
39 26 50
39 27 60
39 28 26
39 29 1
39 30 41
39 31 52
39 32 49
39 33 50
39 34 56
39 35 48
39 36 31
39 37 19
39 38 17
40 0 64
40 1 52
40 2 12
40 3 19
40 4 33
40 5 39
40 6 34
40 7 56
40 8 38
40 9 30
40 10 57
40 11 26
40 12 63
40 13 30
40 14 44
40 15 28
40 16 11
40 17 10
40 18 32
40 19 12
40 20 18
40 21 58
40 22 69
40 23 23
40 24 56
40 25 18
40 26 14
40 27 66
40 28 5
40 29 53
40 30 9
40 31 18
40 32 52
40 33 27
40 34 52
40 35 59
40 36 49
40 37 32
40 38 18
40 39 54
41 0 34
41 1 47
41 2 38
41 3 67
41 4 21
41 5 44
41 6 53
41 7 55
41 8 28
41 9 38
41 10 16
41 11 48
41 12 50
41 13 25
41 14 12
41 15 23
41 16 36
41 17 37
41 18 62
41 19 38
41 20 60
41 21 23
41 22 25
41 23 12
41 24 1
41 25 29
41 26 42
41 27 20
41 28 67
41 29 54
41 30 3
41 31 60
41 32 62
41 33 40
41 34 54
41 35 30
41 36 14
41 37 38
41 38 38
41 39 37
41 40 22
42 0 43
42 1 55
42 2 1
42 3 30
42 4 12
42 5 2
42 6 16
42 7 7
42 8 12
42 9 34
42 10 1
42 11 7
42 12 61
42 13 54
42 14 62
42 15 68
42 16 70
42 17 61
42 18 50
42 19 23
42 20 35
42 21 69
42 22 62
42 23 58
42 24 19
42 25 50
42 26 60
42 27 14
42 28 45
42 29 53
42 30 23
42 31 62
42 32 14
42 33 22
42 34 54
42 35 11
42 36 36
42 37 30
42 38 51
42 39 58
42 40 50
42 41 19
43 0 17
43 1 49
43 2 70
43 3 9
43 4 38
43 5 50
43 6 41
43 7 25
43 8 27
43 9 5
43 10 37
43 11 55
43 12 8
43 13 5
43 14 44
43 15 19
43 16 11
43 17 24
43 18 10
43 19 17
43 20 30
43 21 44
43 22 19
43 23 51
43 24 4
43 25 32
43 26 22
43 27 63
43 28 18
43 29 15
43 30 16
43 31 22
43 32 23
43 33 44
43 34 67
43 35 26
43 36 9
43 37 28
43 38 39
43 39 42
43 40 27
43 41 55
43 42 19
